
630.0
630.0
630.0
750.0
630.0
630.0
630.0
630.0
1050.0
900.0
630.0
630.0
630.0
630.0
630.0
630.0
900.0
630.0
630.0
630.0
630.0
900.0
630.0
630.0
630.0
660.0
930.0
630.0
630.0
990.0
630.0
990.0
630.0
630.0
630.0
630.0
630.0
630.0
630.0
930.0